nNurses = 169;
nHours = 25;
minHours = 9;
maxHours = 10;
maxConsec = 10;
maxPresence = 17;
demand = [29, 31, 36, 40, 37, 32, 37, 37, 39, 39, 41, 45, 44, 46, 43, 44, 42, 40, 41, 38, 40, 43, 47, 43, 38];
